
  12    4
  10   10   10   10

   0   0   0   0   0   1 2 
  10  10  10  10  10   4 11 7 5 3 
   7  10  10  10  10   1 4 
   1  10  10  10  10   3 10 9 6 
   8  10  10  10  10   2 9 8 
   3  10  10  10  10   1 8 
   7  10  10  10  10   1 8 
   4  10  10  10  10   1 12
   2  10  10  10  10   1 12
   7  10  10  10  10   1 12
   7  10  10  10  10   1 12
   0   0   0   0   0   0 
